NAME: bip_60_0
TYPE: TSP
COMMENT: bip_60_0
DIMENSION: 60
EDGE_WEIGHT_TYPE: EUC_2D
NODE_COORD_SECTION
1 47 89
2 95 35
3 80 37
4 7 34
5 28 85
6 67 97
7 44 79
8 94 24
9 27 77
10 44 20
11 32 14
12 62 27
13 82 67
14 21 36
15 13 41
16 25 78
17 46 32
18 17 82
19 72 9
20 94 59
21 7 91
22 42 59
23 31 16
24 28 15
25 32 53
26 88 73
27 45 84
28 97 90
29 39 91
30 38 76
31 481 440
32 471 498
33 436 499
34 402 437
35 474 473
36 461 404
37 452 416
38 490 461
39 445 451
40 400 472
41 413 483
42 480 447
43 418 424
44 493 446
45 483 456
46 413 470
47 491 413
48 459 466
49 409 443
50 441 479
51 454 400
52 453 438
53 474 401
54 436 478
55 408 487
56 450 430
57 466 403
58 403 442
59 468 440
60 486 418
